100
32
1
8
20
11
12
17
20
19
8
5
5
4
6
23
8
20
3
4
25
15
3
3
16
4
15
25
7
4
6
2
10
6
17
6
4
17
16
17
23
1
24
7
2
19
8
19
28
23
9
17
1
1
29
1
24
2
24
20
15
16
9
19
25
1
2
1
7
25
4
6
20
22
4
30
10
3
6
1
2
21
2
11
21
9
20
30
7
20
12
22
2
10
12
4
15
3
13
13
14
14